408
750
525	2
524	2
523	3
521	8
520	4
519	4
518	2
517	3
516	1
515	2
514	3
513	4
512	1
511	4
510	2
509	3
506	2
505	1
504	1
503	2
502	1
500	2
499	2
498	5
496	4
495	4
494	2
493	1
492	2
491	1
490	5
489	1
487	4
486	4
485	1
484	5
483	1
482	1
481	4
480	1
479	2
478	5
477	1
476	2
475	1
474	1
473	3
472	2
471	3
470	1
469	2
468	3
467	3
465	2
464	3
463	2
462	2
461	1
460	2
459	2
457	4
456	2
455	2
454	1
453	2
452	2
451	1
450	1
449	2
448	4
446	1
445	5
444	7
443	4
442	3
441	2
439	4
438	2
437	1
436	2
435	3
434	1
433	4
432	1
431	5
430	1
429	3
428	5
427	1
426	2
425	1
424	3
423	1
422	3
421	2
420	3
419	3
418	1
417	1
415	5
414	4
413	3
412	4
411	1
410	1
409	1
408	1
407	3
406	3
405	5
404	1
403	2
402	1
401	2
400	4
399	2
398	3
397	1
396	3
395	2
394	2
393	3
392	3
391	3
390	1
389	1
387	3
386	3
385	3
384	2
383	4
382	3
381	2
380	2
379	1
377	5
376	3
375	4
374	3
373	5
372	4
371	2
370	3
369	3
368	1
367	2
366	2
365	1
364	2
363	1
362	2
361	2
360	2
358	3
357	2
356	3
355	2
354	1
353	3
352	3
351	7
350	6
349	2
347	2
346	3
345	1
344	3
343	2
342	3
341	3
340	2
339	1
338	4
337	4
336	2
335	3
334	5
333	2
332	4
331	4
328	3
327	2
326	2
325	3
324	2
323	2
322	3
321	2
320	3
319	1
318	1
316	3
315	2
314	4
313	2
312	3
311	1
310	2
309	2
307	3
306	1
305	2
303	2
302	6
301	4
300	2
299	1
298	1
297	3
296	4
295	1
294	1
293	2
292	3
291	1
290	4
289	5
288	1
287	3
286	4
285	2
284	5
283	3
282	3
280	3
279	2
278	3
277	2
276	2
275	3
274	3
273	2
272	3
271	3
270	1
269	1
268	2
267	1
266	2
265	5
264	2
262	3
261	3
259	1
258	2
257	2
256	1
255	5
254	1
253	2
252	3
250	2
249	2
248	1
246	2
244	1
242	3
238	1
237	3
236	3
235	1
233	3
232	4
231	2
230	3
229	1
228	2
227	1
226	1
225	5
224	5
223	5
221	5
220	4
218	4
217	4
216	3
215	2
214	2
213	1
212	2
211	4
210	2
209	1
208	3
207	3
206	4
204	3
203	2
202	3
201	2
200	3
199	3
198	2
197	2
196	3
195	2
194	3
193	4
192	2
191	1
190	1
189	2
188	2
187	2
185	1
181	2
180	1
179	1
178	4
177	6
176	2
175	1
174	2
173	6
172	2
171	3
170	3
169	2
168	1
167	2
166	2
165	1
164	2
163	4
162	4
160	2
159	3
158	2
156	1
155	1
154	1
153	1
151	4
150	2
149	2
148	1
147	4
146	1
145	4
144	2
143	3
142	1
141	2
140	1
139	1
138	2
137	1
136	2
135	1
134	2
133	1
132	2
131	2
130	2
129	3
128	2
127	2
126	2
125	1
124	8
123	6
122	2
121	5
120	4
119	2
118	3
117	1
116	1
115	3
114	2
113	3
112	2
111	1
110	3
109	1
108	1
107	2
106	1
105	2
104	2
103	1
102	2
101	1
100	4
99	2
98	4
97	1
96	4
95	1
94	3
93	2
91	2
90	3
89	2
88	1
87	2
86	2
85	3
84	1
83	2
82	1
81	3
80	1
78	4
77	3
76	2
75	3
